c ---- [ banner ] ------------------------------------------------------------
c
c Kissat SAT Solver
c 
c Copyright (c) 2021-2024 Armin Biere University of Freiburg
c Copyright (c) 2019-2021 Armin Biere Johannes Kepler University Linz
c 
c Version 4.0.1 43f02cf3e992cb44653b35e5cb26f93281552ae0
c gcc (Ubuntu 13.2.0-23ubuntu4) 13.2.0 -W -Wall -O3 -DNDEBUG
c Thu Sep 12 12:27:46 CEST 2024 Linux abryzen9 6.8.0-41-generic x86_64
c
c ---- [ parsing ] -----------------------------------------------------------
c
c opened and reading DIMACS file:
c
c   /data/artifact/AMulet2.0_artifact/exp4/cnf_dc2_64/64_64_U_SP_DT_KS_GenMul_dc2.cnf
c
c parsed 'p cnf 29360 129140' header
c closing input after reading 2581347 bytes (2 MB)
c finished parsing after 0.03 seconds
c
c ---- [ options ] -----------------------------------------------------------
c
c --stable=0                       (different from default '1')
c
c ---- [ solving ] -----------------------------------------------------------
c
c  seconds switched rate     size/glue tier1  binary           remaining
c         MB reductions conflicts size  tier2     irredundant
c          level restarts redundant glue  trail           variables
c
c *  0.03 10 0 0 0  0 0   0   0 0.0 0 0 0 0 0% 11826 117312 29357 100%
c (  0.06 12 0 0 0  0 0   0   0 0.0 0 0 0 0 0% 11826 117312 29357 100%
c .  0.07 13 0 0 0  0 0   0   0 0.0 0 0 0 0 0% 11822 117312 29357 100%
c c  0.16 18 0 0 0  0 0   0   0 0.0 0 0 0 0 0% 18395 104168 26071 89%
c d  0.17 18 0 0 0  0 0   0   0 0.0 0 0 0 0 0% 11823 104168 26071 89%
c =  0.23 18 0 0 0  0 0   0   0 0.0 0 0 0 0 0% 12383 104166 25791 88%
c d  0.23 18 0 0 0  0 0   0   0 0.0 0 0 0 0 0% 11823 104166 25791 88%
c f  0.36 17 0 0 0  0 0   0   0 0.0 0 0 0 0 0% 16489 96827 28409 97%
c e  0.54 26 0 0 0  0 0   0   0 0.0 0 0 0 0 0% 10307 104789 19548 67%
c )  0.54 26 0 0 0  0 0   0   0 0.0 0 0 0 0 0% 10307 104789 19548 67%
c {  0.57 26 0 0 0  0 0   0   0 0.0 0 0 2 6 0% 10307 104789 19548 67%
c -  0.85 26 239 0 1 204 37 1000 748 2.9 18 6 5 12 23% 10334 104789 19548 67%
c -  1.12 26 323 0 2 358 41 2000 1281 3.5 26 7 3 11 22% 10407 104789 19548 67%
c c  1.31 24 284 0 2 394 38 2502 1554 3.7 27 7 3 10 24% 10518 104367 19482 66%
c d  1.32 24 284 0 2 394 38 2502 1509 3.7 27 7 3 10 24% 10386 104367 19482 66%
c u  1.34 24 284 0 2 394 38 2502 1212 3.7 27 7 3 10 24% 10398 104367 19482 66%
c v  1.36 24 284 0 2 394 38 2502 972 3.7 27 7 3 10 24% 10398 104367 19482 66%
c w  1.39 26 284 0 2 394 38 2502 972 3.7 27 7 3 10 24% 10398 104367 19482 66%
c x  1.41 27 284 0 2 394 38 2502 972 3.7 27 7 3 10 24% 10398 104089 19482 66%
c =  1.49 29 284 0 2 394 38 2502 972 3.7 27 7 3 10 24% 10582 104089 19390 66%
c
c  seconds   switched   rate      size/glue tier1     binary           remaining
c         MB  reductions conflicts      size  tier2       irredundant
c           level restarts    redundant   glue    trail           variables
c
c d  1.50 29 284 0 2 394 38 2502 970 3.7 27 7 3 10 24% 10394 104089 19388 66%
c f  1.55 29 284 0 2 394 38 2502 970 3.7 27 7 3 10 24% 10973 102937 19960 68%
c u  1.63 29 284 0 2 394 38 2502 937 3.7 27 7 3 10 24% 10974 102937 19960 68%
c v  1.65 29 284 0 2 394 38 2502 909 3.7 27 7 3 10 24% 10974 102937 19960 68%
c w  1.69 29 284 0 2 394 38 2502 903 3.7 27 7 3 10 24% 10974 102937 19960 68%
c x  1.71 29 284 0 2 394 38 2502 903 3.7 27 7 3 10 24% 10974 102720 19960 68%
c =  1.79 29 284 0 2 394 38 2502 903 3.7 27 7 3 10 24% 11108 102720 19893 68%
c d  1.80 29 284 0 2 394 38 2502 903 3.7 27 7 3 10 24% 10962 102720 19893 68%
c f  1.84 29 284 0 2 394 38 2502 903 3.7 27 7 3 10 24% 11086 102534 19955 68%
c -  2.09 29 324 0 3 504 39 3414 1470 3.8 28 7 3 10 24% 11102 102534 19955 68%
c -  2.40 29 438 0 4 681 37 5146 2655 3.8 26 7 3 10 24% 11131 102534 19955 68%
c -  2.80 29 404 0 5 919 35 7146 3808 3.6 26 7 3 11 25% 11204 102534 19955 68%
c d  2.85 29 400 0 5 939 34 7705 4309 3.6 25 7 3 11 24% 11152 102534 19924 68%
c u  2.88 29 400 0 5 939 34 7705 3574 3.6 25 7 3 11 24% 11168 102534 19924 68%
c v  2.91 29 400 0 5 939 34 7705 3255 3.6 25 7 3 11 24% 11168 102534 19924 68%
c w  2.94 29 400 0 5 939 34 7705 3254 3.6 25 7 3 11 24% 11168 102534 19924 68%
c x  2.96 29 400 0 5 939 34 7705 3254 3.6 25 7 3 11 24% 11168 102367 19924 68%
c =  3.07 29 400 0 5 939 34 7705 3254 3.6 25 7 3 11 24% 12116 102367 19450 66%
c d  3.08 29 400 0 5 939 34 7705 3249 3.6 25 7 3 11 24% 11058 102367 19447 66%
c t  3.09 29 400 0 5 939 34 7705 3249 3.6 25 7 3 11 24% 11053 102367 19447 66%
c
c  seconds   switched   rate       size/glue tier1     binary           remaining
c         MB  reductions conflicts       size  tier2       irredundant
c           level restarts    redundant    glue    trail           variables
c
c f  3.13 29 400 0 5 939 34 7705 3249 3.6 25 7 3 11 24% 11551 101616 19696 67%
c c  3.18 29 400 0 5 939 34 7705 3249 3.6 25 7 3 11 24% 11553 101612 19695 67%
c d  3.19 29 400 0 5 939 34 7705 3249 3.6 25 7 3 11 24% 11551 101612 19695 67%
c u  3.20 29 400 0 5 939 34 7705 3143 3.6 25 7 3 11 24% 11554 101612 19695 67%
c v  3.22 29 400 0 5 939 34 7705 3067 3.6 25 7 3 11 24% 11554 101612 19695 67%
c w  3.24 29 400 0 5 939 34 7705 3062 3.6 25 7 3 11 24% 11554 101612 19695 67%
c x  3.26 29 400 0 5 939 34 7705 3062 3.6 25 7 3 11 24% 11554 100913 19695 67%
c =  3.34 29 400 0 5 939 34 7705 3062 3.6 25 7 3 11 24% 12350 100913 19297 66%
c d  3.34 29 400 0 5 939 34 7705 3043 3.6 25 7 3 11 24% 11421 100913 19297 66%
c t  3.35 29 400 0 5 939 34 7705 3043 3.6 25 7 3 11 24% 11364 100913 19297 66%
c f  3.38 29 400 0 5 939 34 7705 3043 3.6 25 7 3 11 24% 13279 98040 20255 69%
c -  3.73 29 377 0 6 1103 34 9384 3874 3.7 27 7 2 10 25% 13326 98040 20255 69%
c o  3.94 29 366 0 6 1174 34 10168 4579 3.7 28 7 2 10 26% 13344 98040 20255 69%
c -  4.44 29 366 0 7 1338 34 11835 5159 3.9 31 8 2 10 27% 13386 98040 20255 69%
c s  4.64 29 371 0 7 1395 34 12508 5768 4.0 32 8 2 10 27% 13396 93210 20255 69%
c e  4.72 29 371 0 7 1395 34 12508 5768 4.0 32 8 2 10 27% 11956 94239 19553 67%
c s  4.72 29 371 0 7 1395 34 12508 5768 4.0 32 8 2 10 27% 11964 93660 19553 67%
c e  4.73 29 371 0 7 1395 34 12508 5768 4.0 32 8 2 10 27% 11944 93679 19545 67%
c ^  4.73 29 371 0 7 1395 34 12508 5768 4.0 32 8 2 10 27% 11944 93679 19545 67%
c -  5.14 29 366 0 8 1596 35 14480 6123 4.3 35 8 2 10 27% 11995 93679 19545 67%
c
c  seconds   switched    rate        size/glue tier1     binary          remaining
c         MB  reductions   conflicts       size  tier2       irredundant
c           level  restarts     redundant    glue    trail          variables
c
c d  5.39 29 367 0 8 1703 35 15785 7208 4.3 35 8 2 10 28% 11739 93679 19376 66%
c u  5.42 29 367 0 8 1703 35 15785 6455 4.3 35 8 2 10 28% 11749 93679 19376 66%
c v  5.47 29 367 0 8 1703 35 15785 5523 4.3 35 8 2 10 28% 11750 93679 19376 66%
c w  5.52 29 367 0 8 1703 35 15785 5523 4.3 35 8 2 10 28% 11750 93679 19376 66%
c x  5.56 29 367 0 8 1703 35 15785 5523 4.3 35 8 2 10 28% 11769 92876 19376 66%
c =  5.71 29 367 0 8 1703 35 15785 5523 4.3 35 8 2 10 28% 12737 92872 18892 64%
c d  5.72 29 367 0 8 1703 35 15785 5429 4.3 35 8 2 10 28% 11561 92872 18891 64%
c t  5.73 29 367 0 8 1703 35 15785 5429 4.3 35 8 2 10 28% 11490 92872 18891 64%
c f  5.77 29 367 0 8 1703 35 15785 5429 4.3 35 8 2 10 28% 11606 92636 18951 65%
c u  5.80 29 367 0 8 1703 35 15785 5287 4.3 35 8 2 10 28% 11611 92636 18951 65%
c v  5.82 29 367 0 8 1703 35 15785 5165 4.3 35 8 2 10 28% 11611 92636 18951 65%
c w  5.90 29 367 0 8 1703 35 15785 5145 4.3 35 8 2 10 28% 11611 92636 18951 65%
c x  5.92 29 367 0 8 1703 35 15785 5145 4.3 35 8 2 10 28% 11611 91330 18951 65%
c =  6.12 29 367 0 8 1703 35 15785 5145 4.3 35 8 2 10 28% 13027 91330 18243 62%
c d  6.13 29 367 0 8 1703 35 15785 5111 4.3 35 8 2 10 28% 11073 91330 18243 62%
c t  6.15 29 367 0 8 1703 35 15785 5111 4.3 35 8 2 10 28% 11070 91330 18243 62%
c -  6.52 29 360 0 9 1817 34 17309 5618 4.3 35 8 2 10 28% 11094 91330 18243 62%
c -  6.88 29 352 0 10 1939 32 20309 7337 4.2 32 8 2 10 27% 11129 91329 18243 62%
c o  6.88 29 351 0 10 1940 32 20335 7361 4.2 32 8 2 10 27% 11130 91329 18243 62%
c -  7.38 29 343 0 11 2196 32 23472 8790 4.2 33 8 2 10 27% 11207 91329 18243 62%
c
c  seconds   switched     rate         size/glue tier1     binary          remaining
c         MB   reductions   conflicts        size  tier2       irredundant
c           level   restarts      redundant    glue    trail          variables
c
c s  7.68 29 340 0 11 2357 31 25009 10171 4.2 34 8 2 10 28% 11229 88468 18243 62%
c e  7.76 29 340 0 11 2357 31 25009 10171 4.2 34 8 2 10 28% 9072 91346 17046 58%
c s  7.77 29 340 0 11 2357 31 25009 10171 4.2 34 8 2 10 28% 9074 91090 17046 58%
c e  7.77 29 340 0 11 2357 31 25009 10171 4.2 34 8 2 10 28% 9074 91090 17045 58%
c ^  7.77 29 340 0 11 2357 31 25009 10171 4.2 34 8 2 10 28% 9074 91090 17045 58%
c -  7.96 29 337 0 12 2459 31 26790 9263 4.2 33 8 2 9 27% 9160 91090 17045 58%
c c  8.03 29 336 0 12 2477 31 26912 9371 4.2 33 8 2 9 27% 9232 90662 16979 58%
c d  8.04 29 336 0 12 2477 31 26912 9287 4.2 33 8 2 9 27% 8925 90662 16877 57%
c u  8.07 29 336 0 12 2477 31 26912 8242 4.2 33 8 2 9 27% 8943 90662 16877 57%
c v  8.10 29 336 0 12 2477 31 26912 7202 4.2 33 8 2 9 27% 8943 90662 16877 57%
c w  8.11 29 336 0 12 2477 31 26912 7199 4.2 33 8 2 9 27% 8943 90662 16877 57%
c x  8.17 29 336 0 12 2477 31 26912 7198 4.2 33 8 2 9 27% 8943 90147 16877 57%
c =  8.34 29 336 0 12 2477 31 26912 7198 4.2 33 8 2 9 27% 12517 90147 15090 51%
c d  8.35 29 336 0 12 2477 31 26912 6950 4.2 33 8 2 9 27% 8803 90147 15089 51%
c t  8.36 29 336 0 12 2477 31 26912 6950 4.2 33 8 2 9 27% 8799 90147 15089 51%
c f  8.40 29 336 0 12 2477 31 26912 6950 4.2 33 8 2 9 27% 8825 90059 15105 51%
c u  8.44 29 336 0 12 2477 31 26912 6404 4.2 33 8 2 9 27% 8825 90059 15105 51%
c v  8.46 29 336 0 12 2477 31 26912 6278 4.2 33 8 2 9 27% 8825 90059 15105 51%
c w  8.47 29 336 0 12 2477 31 26912 6275 4.2 33 8 2 9 27% 8825 90059 15105 51%
c x  8.54 29 336 0 12 2477 31 26912 6275 4.2 33 8 2 9 27% 8825 82935 15105 51%
c
c  seconds   switched     rate        size/glue tier1    binary          remaining
c         MB   reductions   conflicts       size  tier2      irredundant
c           level   restarts     redundant    glue   trail          variables
c
c =  8.72 29 336 0 12 2477 31 26912 6275 4.2 33 8 2 9 27% 10653 82933 14191 48%
c d  8.72 29 336 0 12 2477 31 26912 6238 4.2 33 8 2 9 27% 8803 82933 14191 48%
c -  9.04 29 329 0 13 2636 30 30254 8189 4.1 32 8 2 9 27% 8836 82933 14191 48%
c -  9.39 29 315 0 14 2857 29 33860 10074 4.0 31 8 2 8 26% 8887 82932 14191 48%
c -  9.93 29 304 0 15 3174 28 37601 11744 3.9 30 8 2 8 27% 8927 82932 14191 48%
c o 10.63 29 296 0 15 3440 28 40335 14193 3.9 31 8 2 8 27% 8963 82931 14191 48%
c c 11.08 29 294 0 15 3608 28 41241 15054 4.0 32 8 2 8 27% 9041 82313 14094 48%
c d 11.09 29 294 0 15 3608 28 41241 14750 4.0 32 8 2 8 27% 8847 82313 14094 48%
c u 11.15 29 294 0 15 3608 28 41241 12485 4.0 32 8 2 8 27% 8863 82313 14094 48%
c v 11.23 29 294 0 15 3608 28 41241 11596 4.0 32 8 2 8 27% 8863 82313 14094 48%
c w 11.29 29 294 0 15 3608 28 41241 11596 4.0 32 8 2 8 27% 8863 82313 14094 48%
c x 11.36 29 294 0 15 3608 28 41241 11596 4.0 32 8 2 8 27% 8872 75442 14094 48%
c d 11.61 29 294 0 15 3608 28 41241 11589 4.0 32 8 2 8 27% 8858 75442 14087 48%
c t 11.63 29 294 0 15 3608 28 41241 11589 4.0 32 8 2 8 27% 8855 75442 14087 48%
c c 11.69 29 294 0 15 3608 28 41241 11589 4.0 32 8 2 8 27% 8870 75378 14079 48%
c d 11.70 29 294 0 15 3608 28 41241 11533 4.0 32 8 2 8 27% 8854 75378 14079 48%
c u 11.75 29 294 0 15 3608 28 41241 11185 4.0 32 8 2 8 27% 8857 75378 14079 48%
c v 11.79 29 294 0 15 3608 28 41241 10450 4.0 32 8 2 8 27% 8859 75378 14079 48%
c w 11.86 29 294 0 15 3608 28 41241 10450 4.0 32 8 2 8 27% 8859 75378 14079 48%
c x 11.90 29 294 0 15 3608 28 41241 10450 4.0 32 8 2 8 27% 8860 74518 14079 48%
c
c  seconds   switched     rate         size/glue tier1    binary         remaining
c         MB   reductions   conflicts        size  tier2     irredundant
c           level   restarts      redundant    glue   trail         variables
c
c d 11.91 29 294 0 15 3608 28 41241 10449 4.0 32 8 2 8 27% 8858 74518 14078 48%
c t 11.92 29 294 0 15 3608 28 41241 10449 4.0 32 8 2 8 27% 8857 74518 14078 48%
c - 11.98 29 293 0 16 3644 28 41473 9320 4.0 32 8 2 8 27% 8857 74518 14078 48%
c - 12.80 29 287 0 17 4158 29 45475 11330 4.0 32 8 2 8 28% 8895 74518 14078 48%
c - 13.57 29 277 0 18 4498 28 49598 13069 4.0 32 8 2 7 28% 8956 74518 14078 48%
c s 13.89 29 274 0 18 4606 28 52109 15341 3.9 31 8 2 7 28% 8969 71212 14078 48%
c e 13.95 29 274 0 18 4606 28 52109 15341 3.9 31 8 2 7 28% 8445 72028 13729 47%
c s 13.95 29 274 0 18 4606 28 52109 15341 3.9 31 8 2 7 28% 8445 71839 13729 47%
c e 13.95 29 274 0 18 4606 28 52109 15341 3.9 31 8 2 7 28% 8441 71844 13728 47%
c ^ 13.95 29 274 0 18 4606 28 52109 15341 3.9 31 8 2 7 28% 8441 71844 13728 47%
c - 14.17 29 271 0 19 4755 28 53840 13735 3.9 31 8 2 7 28% 8469 71844 13728 47%
c - 14.77 29 265 0 20 5130 27 58198 15374 3.8 31 8 2 7 28% 8524 71844 13728 47%
c d 14.94 29 263 0 20 5248 27 58886 15941 3.8 31 8 2 7 28% 8458 71844 13693 47%
c u 14.99 29 263 0 20 5248 27 58886 13828 3.8 31 8 2 7 28% 8470 71844 13693 47%
c v 15.04 29 263 0 20 5248 27 58886 12316 3.8 31 8 2 7 28% 8472 71844 13693 47%
c w 15.11 29 263 0 20 5248 27 58886 12316 3.8 31 8 2 7 28% 8472 71844 13693 47%
c x 15.17 29 263 0 20 5248 27 58886 12313 3.8 31 8 2 7 28% 8472 71203 13693 47%
c = 15.51 29 263 0 20 5248 27 58886 12313 3.8 31 8 2 7 28% 9068 71203 13395 46%
c d 15.52 29 263 0 20 5248 27 58886 12132 3.8 31 8 2 7 28% 8437 71203 13390 46%
c t 15.54 29 263 0 20 5248 27 58886 12132 3.8 31 8 2 7 28% 8428 71203 13390 46%
c
c  seconds   switched     rate         size/glue tier1    binary         remaining
c         MB   reductions   conflicts        size  tier2     irredundant
c           level   restarts      redundant    glue   trail         variables
c
c f 15.57 29 263 0 20 5248 27 58886 12132 3.8 31 8 2 7 28% 8432 71179 13394 46%
c c 15.61 29 263 0 20 5248 27 58886 12058 3.8 31 8 2 7 28% 8471 71019 13374 46%
c d 15.62 29 263 0 20 5248 27 58886 12058 3.8 31 8 2 7 28% 8431 71019 13374 46%
c u 15.66 29 263 0 20 5248 27 58886 11489 3.8 31 8 2 7 28% 8439 71019 13374 46%
c v 15.69 29 263 0 20 5248 27 58886 11217 3.8 31 8 2 7 28% 8440 71019 13374 46%
c w 15.77 29 263 0 20 5248 27 58886 11181 3.8 31 8 2 7 28% 8440 71019 13374 46%
c x 15.86 29 263 0 20 5248 27 58886 11181 3.8 31 8 2 7 28% 8440 70569 13374 46%
c = 16.15 29 263 0 20 5248 27 58886 11181 3.8 31 8 2 7 28% 9110 70563 13039 44%
c d 16.16 29 263 0 20 5248 27 58886 11034 3.8 31 8 2 7 28% 8400 70563 13038 44%
c t 16.17 29 263 0 20 5248 27 58886 11034 3.8 31 8 2 7 28% 8399 70563 13038 44%
c - 17.01 29 258 0 21 5653 27 62670 12657 3.8 31 8 2 7 28% 8465 70563 13038 44%
c - 18.15 29 250 0 22 6166 27 67252 14839 3.7 31 8 2 7 28% 8492 70563 13038 44%
c o 18.93 29 245 0 22 6468 27 70339 17771 3.7 31 8 2 7 29% 8502 70563 13038 44%
c - 19.30 29 243 0 23 6618 27 71942 16747 3.7 32 8 2 7 29% 8530 70563 13038 44%
c - 20.90 29 237 0 24 7280 27 76737 18481 3.7 32 9 2 6 29% 8561 70563 13038 44%
c c 21.55 29 236 0 24 7522 27 79977 21335 3.7 32 9 2 6 29% 8650 69844 12919 44%
c d 21.56 29 236 0 24 7522 27 79977 20896 3.7 32 9 2 6 29% 8412 69844 12919 44%
c u 21.62 29 236 0 24 7522 27 79977 17932 3.7 32 9 2 6 29% 8427 69844 12919 44%
c v 21.71 29 236 0 24 7522 27 79977 15830 3.7 32 9 2 6 29% 8433 69844 12919 44%
c w 21.78 29 236 0 24 7522 27 79977 15819 3.7 32 9 2 6 29% 8433 69844 12919 44%
c
c  seconds   switched     rate         size/glue tier1    binary         remaining
c         MB   reductions   conflicts        size  tier2     irredundant
c           level   restarts      redundant    glue   trail         variables
c
c x 21.87 29 236 0 24 7522 27 79977 15819 3.7 32 9 2 6 29% 8435 65985 12919 44%
c d 21.90 29 236 0 24 7522 27 79977 15810 3.7 32 9 2 6 29% 8419 65985 12911 44%
c t 21.91 29 236 0 24 7522 27 79977 15810 3.7 32 9 2 6 29% 8413 65985 12911 44%
c c 21.96 29 236 0 24 7522 27 79977 15810 3.7 32 9 2 6 29% 8419 65961 12908 44%
c d 21.96 29 236 0 24 7522 27 79977 15798 3.7 32 9 2 6 29% 8413 65961 12908 44%
c u 22.00 29 236 0 24 7522 27 79977 15110 3.7 32 9 2 6 29% 8415 65961 12908 44%
c v 22.05 29 236 0 24 7522 27 79977 14687 3.7 32 9 2 6 29% 8416 65961 12908 44%
c w 22.19 29 236 0 24 7522 27 79977 14603 3.7 32 9 2 6 29% 8416 65961 12908 44%
c x 22.27 29 236 0 24 7522 27 79977 14602 3.7 32 9 2 6 29% 8416 65888 12908 44%
c d 22.28 29 236 0 24 7522 27 79977 14602 3.7 32 9 2 6 29% 8414 65888 12907 44%
c - 22.47 29 235 0 25 7619 27 81635 12887 3.7 32 9 1 6 29% 8444 65886 12907 44%
c - 23.10 29 230 0 26 8068 26 86636 14306 3.6 32 9 1 6 29% 8504 65880 12907 44%
c - 23.45 29 229 0 27 8315 25 91737 15890 3.6 31 9 1 6 29% 8547 65879 12907 44%
c s 23.84 29 226 0 27 8596 25 95830 19586 3.5 31 9 1 6 29% 8590 65842 12907 44%
c e 23.91 29 226 0 27 8596 25 95830 19586 3.5 31 9 1 6 29% 5667 72699 11420 39%
c 2 23.91 29 226 0 27 8596 25 95830 19586 3.5 31 9 1 6 29% 5664 72699 11420 39%
c s 23.93 29 226 0 27 8596 25 95830 19586 3.5 31 9 1 6 29% 5664 72282 11420 39%
c e 23.93 29 226 0 27 8596 25 95830 19586 3.5 31 9 1 6 29% 5659 72350 11387 39%
c ^ 23.94 29 226 0 27 8596 25 95830 19586 3.5 31 9 1 6 29% 5659 72350 11387 39%
c - 24.08 29 224 0 28 8704 25 96935 12931 3.5 30 9 1 6 29% 5660 72350 11387 39%
c
c  seconds   switched     rate          size/glue tier1    binary         remaining
c         MB   reductions   conflicts         size  tier2     irredundant
c           level   restarts       redundant    glue   trail         variables
c
c - 24.76 29 219 0 29 9243 24 102228 15096 3.4 30 9 1 6 29% 5685 72349 11387 39%
c d 25.06 29 217 0 29 9495 24 104652 17201 3.4 30 9 1 6 29% 5661 72346 11370 39%
c u 25.09 29 217 0 29 9495 24 104652 15569 3.4 30 9 1 6 29% 5670 72346 11370 39%
c v 25.15 29 217 0 29 9495 24 104652 13081 3.4 30 9 1 6 29% 5674 72346 11370 39%
c w 25.31 29 217 0 29 9495 24 104652 13022 3.4 30 9 1 6 29% 5674 72346 11370 39%
c = 25.67 29 217 0 29 9495 24 104652 13022 3.4 30 9 1 6 29% 6028 72276 11187 38%
c d 25.68 29 217 0 29 9495 24 104652 12701 3.4 30 9 1 6 29% 5625 72276 11187 38%
c t 25.68 29 217 0 29 9495 24 104652 12701 3.4 30 9 1 6 29% 5614 72276 11187 38%
c f 25.72 29 217 0 29 9495 24 104652 12701 3.4 30 9 1 6 29% 5628 72192 11194 38%
c u 25.77 29 217 0 29 9495 24 104652 12096 3.4 30 9 1 6 29% 5624 72192 11187 38%
c v 25.80 29 217 0 29 9495 24 104652 11541 3.4 30 9 1 6 29% 5624 72192 11187 38%
c w 25.92 29 217 0 29 9495 24 104652 11428 3.4 30 9 1 6 29% 5624 72192 11187 38%
c x 25.99 29 217 0 29 9495 24 104652 11428 3.4 30 9 1 6 29% 5624 72027 11187 38%
c i 26.57 29 215 0 29 9626 24 106130 12726 3.4 30 9 1 6 29% 5634 72027 11186 38%
c - 26.77 29 214 0 30 9785 24 107614 11833 3.4 30 9 1 6 29% 5626 72026 11186 38%
c o 27.15 29 213 0 30 10070 24 110339 14361 3.4 30 9 1 6 29% 5633 72026 11186 38%
c - 27.49 29 210 0 31 10311 24 113094 14299 3.4 30 9 1 6 29% 5635 72026 11186 38%
c - 28.19 29 205 0 32 10780 24 118661 16328 3.3 30 9 1 6 30% 5637 72025 11186 38%
c i 28.84 29 202 0 32 11210 23 123770 21136 3.3 30 9 1 6 30% 5646 72025 11185 38%
c i 28.84 29 202 0 32 11210 23 123806 21153 3.3 30 9 1 6 30% 5651 72025 11183 38%
c
c  seconds   switched      rate          size/glue tier1    binary         remaining
c         MB   reductions    conflicts         size  tier2     irredundant
c           level   restarts        redundant    glue   trail         variables
c
c i 28.89 29 202 0 32 11243 23 124226 21550 3.3 30 9 1 6 30% 5653 72025 11182 38%
c - 28.90 29 202 0 33 11245 23 124317 17803 3.3 30 9 1 6 30% 5651 72025 11182 38%
c i 29.11 29 200 0 33 11387 23 126156 19511 3.3 30 9 1 6 30% 5657 72024 11180 38%
c i 29.18 29 199 0 33 11430 23 126802 20106 3.3 30 9 1 6 30% 5664 72023 11178 38%
c i 29.27 29 199 0 33 11488 23 127499 20748 3.3 30 9 1 6 30% 5668 72023 11177 38%
c i 29.41 29 197 0 33 11594 23 128530 21697 3.3 30 9 1 6 30% 5675 72023 11173 38%
c i 29.46 29 197 0 33 11628 23 128901 22029 3.3 30 9 1 6 30% 5680 72023 11171 38%
c i 29.46 29 197 0 33 11629 23 128907 22031 3.3 30 9 1 6 30% 5681 72023 11170 38%
c i 29.50 29 197 0 33 11654 23 129216 22295 3.3 30 9 1 6 30% 5683 72023 11169 38%
c - 29.56 29 196 0 34 11693 23 130063 18748 3.3 30 9 1 6 30% 5679 72023 11169 38%
c i 29.70 29 194 0 34 11790 23 131176 19787 3.2 30 9 1 6 30% 5685 72023 11168 38%
c i 29.73 29 194 0 34 11805 23 131658 20182 3.2 30 9 1 6 30% 5694 72023 11165 38%
c i 29.78 29 193 0 34 11838 23 132168 20657 3.2 30 9 1 6 30% 5696 72023 11164 38%
c d 29.84 29 193 0 34 11870 22 132941 21019 3.2 30 9 1 6 30% 5695 71786 11144 38%
c d 29.84 29 193 0 34 11870 22 132941 21004 3.2 30 9 1 6 30% 5655 71786 11124 38%
c u 29.87 29 193 0 34 11870 22 132941 18814 3.2 30 9 1 6 30% 5677 71786 11124 38%
c v 29.96 29 193 0 34 11870 22 132941 15255 3.2 30 9 1 6 30% 5686 71786 11124 38%
c w 30.06 29 193 0 34 11870 22 132941 15098 3.2 30 9 1 6 30% 5687 71786 11124 38%
c d 30.07 29 193 0 34 11870 22 132941 15090 3.2 30 9 1 6 30% 5669 71778 11115 38%
c t 30.08 29 193 0 34 11870 22 132941 15090 3.2 30 9 1 6 30% 5655 71778 11115 38%
c
c  seconds   switched      rate          size/glue tier1    binary         remaining
c         MB   reductions    conflicts         size  tier2     irredundant
c           level   restarts        redundant    glue   trail         variables
c
c b 30.08 29 193 0 34 11870 22 132941 15090 3.2 30 9 1 6 30% 5655 71778 11114 38%
c u 30.11 29 193 0 34 11870 22 132941 14596 3.2 30 9 1 6 30% 5662 71768 11113 38%
c v 30.16 29 193 0 34 11870 22 132941 13909 3.2 30 9 1 6 30% 5662 71768 11113 38%
c w 30.24 29 193 0 34 11870 22 132941 13808 3.2 30 9 1 6 30% 5662 71768 11113 38%
c = 30.29 29 193 0 34 11870 22 132941 13808 3.2 30 9 1 6 30% 5824 71534 11004 37%
c } 30.29 29 193 0 34 11870 22 132941 13808 3.2 30 9 1 6 30% 5824 71534 11085 38%
c 0 30.29 29 193 0 34 11870 22 132941 13808 3.2 30 9 1 6 30% 5824 71534 11085 38%
c
c ---- [ result ] ------------------------------------------------------------
c
s UNSATISFIABLE
c
c ---- [ profiling ] ---------------------------------------------------------
c
c          21.88   72.23 %  search
c          21.88   72.23 %  focused
c           7.85   25.90 %  simplify
c           7.72   25.49 %  probe
c           3.27   10.79 %  vivify
c           2.81    9.29 %  sweep
c           0.54    1.80 %  congruence
c           0.53    1.75 %  factor
c           0.48    1.60 %  preprocess
c           0.42    1.38 %  substitute
c           0.41    1.37 %  eliminate
c           0.18    0.61 %  fastel
c           0.16    0.52 %  reduce
c           0.10    0.34 %  transitive
c           0.07    0.24 %  subsume
c           0.05    0.16 %  lucky
c           0.05    0.15 %  backbone
c           0.03    0.11 %  parse
c =============================================
c          30.29  100.00 %  total
c
c ---- [ statistics ] --------------------------------------------------------
c
c chronological:                         5605                4 %  conflicts
c conflicts:                           132941             4388.16 per second
c congruent:                             3666               12 %  variables
c decisions:                          3031902               22.81 per conflict
c eliminated:                           12639               43 %  variables
c factored:                              4546               15 %  variables
c fast_eliminated:                       8861               70 %  eliminated
c fast_strengthened:                       22                5 %  per strengthened
c fast_subsumed:                           93                1 %  per subsumed
c iterations:                              14                0 %  variables
c propagations:                     129312198          4268384    per second
c reductions:                              34             3910    interval
c reordered:                                5            26588    interval
c restarts:                             11870               11    interval
c strengthened:                           472                0 %  checks
c substituted:                          10113               34 %  variables
c subsumed:                             12555                1 %  checks
c switched:                                 0                0    interval
c vivified:                             69065               12 %  checks
c
c ---- [ glue usage ] --------------------------------------------------------
c
c focused glue 1   used 172667 clauses 54.77% accumulated 54.77% tier1
c focused glue 2   used  64527 clauses 20.47% accumulated 75.24%
c focused glue 3-4 used  33579 clauses 10.65% accumulated 85.89%
c focused glue 5   used   8308 clauses  2.64% accumulated 88.53%
c focused glue 6   used   6167 clauses  1.96% accumulated 90.48% tier2
c
c ---- [ resources ] ---------------------------------------------------------
c
c maximum-resident-set-size:         30216192 bytes         29 MB
c process-time:                            30s              30.29 seconds
c
c ---- [ shutting down ] -----------------------------------------------------
c
c exit 20
